(set-option :produce-models true)
(set-logic QF_LRA)
(set-info :notes | Strip-packing problem.|)
(declare-fun x0 () Real)
(declare-fun y0 () Real)
(declare-fun x1 () Real)
(declare-fun y1 () Real)
(declare-fun x2 () Real)
(declare-fun y2 () Real)
(declare-fun x3 () Real)
(declare-fun y3 () Real)
(declare-fun x4 () Real)
(declare-fun y4 () Real)
(declare-fun x5 () Real)
(declare-fun y5 () Real)
(declare-fun x6 () Real)
(declare-fun y6 () Real)
(declare-fun x7 () Real)
(declare-fun y7 () Real)
(declare-fun x8 () Real)
(declare-fun y8 () Real)
(declare-fun x9 () Real)
(declare-fun y9 () Real)
(declare-fun x10 () Real)
(declare-fun y10 () Real)
(declare-fun x11 () Real)
(declare-fun y11 () Real)
(declare-fun z () Real)
(declare-fun c () Real)
(assert (and (= c z) (and (>= x0 0) 
(and (>= y0 0) 
(and (>= x1 0) 
(and (>= y1 0) 
(and (>= x2 0) 
(and (>= y2 0) 
(and (>= x3 0) 
(and (>= y3 0) 
(and (>= x4 0) 
(and (>= y4 0) 
(and (>= x5 0) 
(and (>= y5 0) 
(and (>= x6 0) 
(and (>= y6 0) 
(and (>= x7 0) 
(and (>= y7 0) 
(and (>= x8 0) 
(and (>= y8 0) 
(and (>= x9 0) 
(and (>= y9 0) 
(and (>= x10 0) 
(and (>= y10 0) 
(and (>= x11 0) 
(and (>= y11 0) 
(and (>= z 0) 
(and (>= c 0) 
(and (<= (+ x0 0.4373935497) z) 
(and (<= 0.8035987203 y0) 
(and (<= y0 1.0) 
(and (<= x0 (- 4.6981308219 0.4373935497)) 
(and (>= x0 0) 
(and (<= (+ x1 0.1551489114) z) 
(and (<= 0.7114025646 y1) 
(and (<= y1 1.0) 
(and (<= x1 (- 4.6981308219 0.1551489114)) 
(and (>= x1 0) 
(and (<= (+ x2 0.0012598895) z) 
(and (<= 0.670701035 y2) 
(and (<= y2 1.0) 
(and (<= x2 (- 4.6981308219 0.0012598895)) 
(and (>= x2 0) 
(and (<= (+ x3 0.4896549737) z) 
(and (<= 0.6561857209 y3) 
(and (<= y3 1.0) 
(and (<= x3 (- 4.6981308219 0.4896549737)) 
(and (>= x3 0) 
(and (<= (+ x4 0.4518809462) z) 
(and (<= 0.6541681767 y4) 
(and (<= y4 1.0) 
(and (<= x4 (- 4.6981308219 0.4518809462)) 
(and (>= x4 0) 
(and (<= (+ x5 0.7751924336) z) 
(and (<= 0.6504334354 y5) 
(and (<= y5 1.0) 
(and (<= x5 (- 4.6981308219 0.7751924336)) 
(and (>= x5 0) 
(and (<= (+ x6 0.3922222142) z) 
(and (<= 0.5803831306 y6) 
(and (<= y6 1.0) 
(and (<= x6 (- 4.6981308219 0.3922222142)) 
(and (>= x6 0) 
(and (<= (+ x7 0.8295642121) z) 
(and (<= 0.5660873072 y7) 
(and (<= y7 1.0) 
(and (<= x7 (- 4.6981308219 0.8295642121)) 
(and (>= x7 0) 
(and (<= (+ x8 0.8962673109) z) 
(and (<= 0.5552967142 y8) 
(and (<= y8 1.0) 
(and (<= x8 (- 4.6981308219 0.8962673109)) 
(and (>= x8 0) 
(and (<= (+ x9 0.2695463806) z) 
(and (<= 0.5527924822 y9) 
(and (<= y9 1.0) 
(and (<= x9 (- 4.6981308219 0.2695463806)) 
(and (>= x9 0) 
(and (<= (+ x10 0.5919398764) z) 
(and (<= 0.2072824114 y10) 
(and (<= y10 1.0) 
(and (<= x10 (- 4.6981308219 0.5919398764)) 
(and (>= x10 0) 
(and (<= (+ x11 0.584506072) z) 
(and (<= 0.0261412037 y11) 
(and (<= y11 1.0) 
(and (<= x11 (- 4.6981308219 0.584506072)) 
(and (>= x11 0) 
(and (<= c 4.6981308219) 
(and (or (<= (+ x0 0.4373935497) x1) (or (<= (+ x1 0.1551489114) x0) (or (>= (- y0 0.8035987203) y1) (or (>= (- y1 0.7114025646) y0))))) 
(and (or (<= (+ x0 0.4373935497) x2) (or (<= (+ x2 0.0012598895) x0) (or (>= (- y0 0.8035987203) y2) (or (>= (- y2 0.670701035) y0))))) 
(and (or (<= (+ x0 0.4373935497) x3) (or (<= (+ x3 0.4896549737) x0) (or (>= (- y0 0.8035987203) y3) (or (>= (- y3 0.6561857209) y0))))) 
(and (or (<= (+ x0 0.4373935497) x4) (or (<= (+ x4 0.4518809462) x0) (or (>= (- y0 0.8035987203) y4) (or (>= (- y4 0.6541681767) y0))))) 
(and (or (<= (+ x0 0.4373935497) x5) (or (<= (+ x5 0.7751924336) x0) (or (>= (- y0 0.8035987203) y5) (or (>= (- y5 0.6504334354) y0))))) 
(and (or (<= (+ x0 0.4373935497) x6) (or (<= (+ x6 0.3922222142) x0) (or (>= (- y0 0.8035987203) y6) (or (>= (- y6 0.5803831306) y0))))) 
(and (or (<= (+ x0 0.4373935497) x7) (or (<= (+ x7 0.8295642121) x0) (or (>= (- y0 0.8035987203) y7) (or (>= (- y7 0.5660873072) y0))))) 
(and (or (<= (+ x0 0.4373935497) x8) (or (<= (+ x8 0.8962673109) x0) (or (>= (- y0 0.8035987203) y8) (or (>= (- y8 0.5552967142) y0))))) 
(and (or (<= (+ x0 0.4373935497) x9) (or (<= (+ x9 0.2695463806) x0) (or (>= (- y0 0.8035987203) y9) (or (>= (- y9 0.5527924822) y0))))) 
(and (or (<= (+ x0 0.4373935497) x10) (or (<= (+ x10 0.5919398764) x0) (or (>= (- y0 0.8035987203) y10) (or (>= (- y10 0.2072824114) y0))))) 
(and (or (<= (+ x0 0.4373935497) x11) (or (<= (+ x11 0.584506072) x0) (or (>= (- y0 0.8035987203) y11) (or (>= (- y11 0.0261412037) y0))))) 
(and (or (<= (+ x1 0.1551489114) x2) (or (<= (+ x2 0.0012598895) x1) (or (>= (- y1 0.7114025646) y2) (or (>= (- y2 0.670701035) y1))))) 
(and (or (<= (+ x1 0.1551489114) x3) (or (<= (+ x3 0.4896549737) x1) (or (>= (- y1 0.7114025646) y3) (or (>= (- y3 0.6561857209) y1))))) 
(and (or (<= (+ x1 0.1551489114) x4) (or (<= (+ x4 0.4518809462) x1) (or (>= (- y1 0.7114025646) y4) (or (>= (- y4 0.6541681767) y1))))) 
(and (or (<= (+ x1 0.1551489114) x5) (or (<= (+ x5 0.7751924336) x1) (or (>= (- y1 0.7114025646) y5) (or (>= (- y5 0.6504334354) y1))))) 
(and (or (<= (+ x1 0.1551489114) x6) (or (<= (+ x6 0.3922222142) x1) (or (>= (- y1 0.7114025646) y6) (or (>= (- y6 0.5803831306) y1))))) 
(and (or (<= (+ x1 0.1551489114) x7) (or (<= (+ x7 0.8295642121) x1) (or (>= (- y1 0.7114025646) y7) (or (>= (- y7 0.5660873072) y1))))) 
(and (or (<= (+ x1 0.1551489114) x8) (or (<= (+ x8 0.8962673109) x1) (or (>= (- y1 0.7114025646) y8) (or (>= (- y8 0.5552967142) y1))))) 
(and (or (<= (+ x1 0.1551489114) x9) (or (<= (+ x9 0.2695463806) x1) (or (>= (- y1 0.7114025646) y9) (or (>= (- y9 0.5527924822) y1))))) 
(and (or (<= (+ x1 0.1551489114) x10) (or (<= (+ x10 0.5919398764) x1) (or (>= (- y1 0.7114025646) y10) (or (>= (- y10 0.2072824114) y1))))) 
(and (or (<= (+ x1 0.1551489114) x11) (or (<= (+ x11 0.584506072) x1) (or (>= (- y1 0.7114025646) y11) (or (>= (- y11 0.0261412037) y1))))) 
(and (or (<= (+ x2 0.0012598895) x3) (or (<= (+ x3 0.4896549737) x2) (or (>= (- y2 0.670701035) y3) (or (>= (- y3 0.6561857209) y2))))) 
(and (or (<= (+ x2 0.0012598895) x4) (or (<= (+ x4 0.4518809462) x2) (or (>= (- y2 0.670701035) y4) (or (>= (- y4 0.6541681767) y2))))) 
(and (or (<= (+ x2 0.0012598895) x5) (or (<= (+ x5 0.7751924336) x2) (or (>= (- y2 0.670701035) y5) (or (>= (- y5 0.6504334354) y2))))) 
(and (or (<= (+ x2 0.0012598895) x6) (or (<= (+ x6 0.3922222142) x2) (or (>= (- y2 0.670701035) y6) (or (>= (- y6 0.5803831306) y2))))) 
(and (or (<= (+ x2 0.0012598895) x7) (or (<= (+ x7 0.8295642121) x2) (or (>= (- y2 0.670701035) y7) (or (>= (- y7 0.5660873072) y2))))) 
(and (or (<= (+ x2 0.0012598895) x8) (or (<= (+ x8 0.8962673109) x2) (or (>= (- y2 0.670701035) y8) (or (>= (- y8 0.5552967142) y2))))) 
(and (or (<= (+ x2 0.0012598895) x9) (or (<= (+ x9 0.2695463806) x2) (or (>= (- y2 0.670701035) y9) (or (>= (- y9 0.5527924822) y2))))) 
(and (or (<= (+ x2 0.0012598895) x10) (or (<= (+ x10 0.5919398764) x2) (or (>= (- y2 0.670701035) y10) (or (>= (- y10 0.2072824114) y2))))) 
(and (or (<= (+ x2 0.0012598895) x11) (or (<= (+ x11 0.584506072) x2) (or (>= (- y2 0.670701035) y11) (or (>= (- y11 0.0261412037) y2))))) 
(and (or (<= (+ x3 0.4896549737) x4) (or (<= (+ x4 0.4518809462) x3) (or (>= (- y3 0.6561857209) y4) (or (>= (- y4 0.6541681767) y3))))) 
(and (or (<= (+ x3 0.4896549737) x5) (or (<= (+ x5 0.7751924336) x3) (or (>= (- y3 0.6561857209) y5) (or (>= (- y5 0.6504334354) y3))))) 
(and (or (<= (+ x3 0.4896549737) x6) (or (<= (+ x6 0.3922222142) x3) (or (>= (- y3 0.6561857209) y6) (or (>= (- y6 0.5803831306) y3))))) 
(and (or (<= (+ x3 0.4896549737) x7) (or (<= (+ x7 0.8295642121) x3) (or (>= (- y3 0.6561857209) y7) (or (>= (- y7 0.5660873072) y3))))) 
(and (or (<= (+ x3 0.4896549737) x8) (or (<= (+ x8 0.8962673109) x3) (or (>= (- y3 0.6561857209) y8) (or (>= (- y8 0.5552967142) y3))))) 
(and (or (<= (+ x3 0.4896549737) x9) (or (<= (+ x9 0.2695463806) x3) (or (>= (- y3 0.6561857209) y9) (or (>= (- y9 0.5527924822) y3))))) 
(and (or (<= (+ x3 0.4896549737) x10) (or (<= (+ x10 0.5919398764) x3) (or (>= (- y3 0.6561857209) y10) (or (>= (- y10 0.2072824114) y3))))) 
(and (or (<= (+ x3 0.4896549737) x11) (or (<= (+ x11 0.584506072) x3) (or (>= (- y3 0.6561857209) y11) (or (>= (- y11 0.0261412037) y3))))) 
(and (or (<= (+ x4 0.4518809462) x5) (or (<= (+ x5 0.7751924336) x4) (or (>= (- y4 0.6541681767) y5) (or (>= (- y5 0.6504334354) y4))))) 
(and (or (<= (+ x4 0.4518809462) x6) (or (<= (+ x6 0.3922222142) x4) (or (>= (- y4 0.6541681767) y6) (or (>= (- y6 0.5803831306) y4))))) 
(and (or (<= (+ x4 0.4518809462) x7) (or (<= (+ x7 0.8295642121) x4) (or (>= (- y4 0.6541681767) y7) (or (>= (- y7 0.5660873072) y4))))) 
(and (or (<= (+ x4 0.4518809462) x8) (or (<= (+ x8 0.8962673109) x4) (or (>= (- y4 0.6541681767) y8) (or (>= (- y8 0.5552967142) y4))))) 
(and (or (<= (+ x4 0.4518809462) x9) (or (<= (+ x9 0.2695463806) x4) (or (>= (- y4 0.6541681767) y9) (or (>= (- y9 0.5527924822) y4))))) 
(and (or (<= (+ x4 0.4518809462) x10) (or (<= (+ x10 0.5919398764) x4) (or (>= (- y4 0.6541681767) y10) (or (>= (- y10 0.2072824114) y4))))) 
(and (or (<= (+ x4 0.4518809462) x11) (or (<= (+ x11 0.584506072) x4) (or (>= (- y4 0.6541681767) y11) (or (>= (- y11 0.0261412037) y4))))) 
(and (or (<= (+ x5 0.7751924336) x6) (or (<= (+ x6 0.3922222142) x5) (or (>= (- y5 0.6504334354) y6) (or (>= (- y6 0.5803831306) y5))))) 
(and (or (<= (+ x5 0.7751924336) x7) (or (<= (+ x7 0.8295642121) x5) (or (>= (- y5 0.6504334354) y7) (or (>= (- y7 0.5660873072) y5))))) 
(and (or (<= (+ x5 0.7751924336) x8) (or (<= (+ x8 0.8962673109) x5) (or (>= (- y5 0.6504334354) y8) (or (>= (- y8 0.5552967142) y5))))) 
(and (or (<= (+ x5 0.7751924336) x9) (or (<= (+ x9 0.2695463806) x5) (or (>= (- y5 0.6504334354) y9) (or (>= (- y9 0.5527924822) y5))))) 
(and (or (<= (+ x5 0.7751924336) x10) (or (<= (+ x10 0.5919398764) x5) (or (>= (- y5 0.6504334354) y10) (or (>= (- y10 0.2072824114) y5))))) 
(and (or (<= (+ x5 0.7751924336) x11) (or (<= (+ x11 0.584506072) x5) (or (>= (- y5 0.6504334354) y11) (or (>= (- y11 0.0261412037) y5))))) 
(and (or (<= (+ x6 0.3922222142) x7) (or (<= (+ x7 0.8295642121) x6) (or (>= (- y6 0.5803831306) y7) (or (>= (- y7 0.5660873072) y6))))) 
(and (or (<= (+ x6 0.3922222142) x8) (or (<= (+ x8 0.8962673109) x6) (or (>= (- y6 0.5803831306) y8) (or (>= (- y8 0.5552967142) y6))))) 
(and (or (<= (+ x6 0.3922222142) x9) (or (<= (+ x9 0.2695463806) x6) (or (>= (- y6 0.5803831306) y9) (or (>= (- y9 0.5527924822) y6))))) 
(and (or (<= (+ x6 0.3922222142) x10) (or (<= (+ x10 0.5919398764) x6) (or (>= (- y6 0.5803831306) y10) (or (>= (- y10 0.2072824114) y6))))) 
(and (or (<= (+ x6 0.3922222142) x11) (or (<= (+ x11 0.584506072) x6) (or (>= (- y6 0.5803831306) y11) (or (>= (- y11 0.0261412037) y6))))) 
(and (or (<= (+ x7 0.8295642121) x8) (or (<= (+ x8 0.8962673109) x7) (or (>= (- y7 0.5660873072) y8) (or (>= (- y8 0.5552967142) y7))))) 
(and (or (<= (+ x7 0.8295642121) x9) (or (<= (+ x9 0.2695463806) x7) (or (>= (- y7 0.5660873072) y9) (or (>= (- y9 0.5527924822) y7))))) 
(and (or (<= (+ x7 0.8295642121) x10) (or (<= (+ x10 0.5919398764) x7) (or (>= (- y7 0.5660873072) y10) (or (>= (- y10 0.2072824114) y7))))) 
(and (or (<= (+ x7 0.8295642121) x11) (or (<= (+ x11 0.584506072) x7) (or (>= (- y7 0.5660873072) y11) (or (>= (- y11 0.0261412037) y7))))) 
(and (or (<= (+ x8 0.8962673109) x9) (or (<= (+ x9 0.2695463806) x8) (or (>= (- y8 0.5552967142) y9) (or (>= (- y9 0.5527924822) y8))))) 
(and (or (<= (+ x8 0.8962673109) x10) (or (<= (+ x10 0.5919398764) x8) (or (>= (- y8 0.5552967142) y10) (or (>= (- y10 0.2072824114) y8))))) 
(and (or (<= (+ x8 0.8962673109) x11) (or (<= (+ x11 0.584506072) x8) (or (>= (- y8 0.5552967142) y11) (or (>= (- y11 0.0261412037) y8))))) 
(and (or (<= (+ x9 0.2695463806) x10) (or (<= (+ x10 0.5919398764) x9) (or (>= (- y9 0.5527924822) y10) (or (>= (- y10 0.2072824114) y9))))) 
(and (or (<= (+ x9 0.2695463806) x11) (or (<= (+ x11 0.584506072) x9) (or (>= (- y9 0.5527924822) y11) (or (>= (- y11 0.0261412037) y9))))) 
(and (or (<= (+ x10 0.5919398764) x11) (or (<= (+ x11 0.584506072) x10) (or (>= (- y10 0.2072824114) y11) (or (>= (- y11 0.0261412037) y10))))) )))))))))))))))))))))))))))))))))))))))))))))))))))))))))))))))))))))))))))))))))))))))))))))))))))))))))))))))))))))))))))))))))))))))))))))))))))))))))))
(minimize c)
(check-sat)
(get-objectives)
(exit)
